min: 50 y1 + 32 y2 + 28y3 + 36 y4+
	2 x11 + 5 x12 + 1 x13 + 2 x14 + 5 x15 +
	4 x21 + 4 x22 + 9 x23 + 1 x24 + 4 x25 + 
	1 x31 + 8 x32 + 5 x33 + 6 x34 + 2 x35 +
	7 x41 + 1 x42 + 2 x43 + 2 x44 + 8 x45 ;


x11 + x12 + x13 + x14 + x15 <= 35 y1;
x21 + x22 + x23 + x24 + x25 <= 28 y2;
x31 + x32 + x33 + x34 + x35 <= 22 y3;
x41 + x42 + x43 + x44 + x45 <= 28 y4;


bin y1,y2,y3,y4;
